c colouring generated by benchmark framework
p edge 211 3541
v 1 10
v 2 29
v 3 16
v 4 24
v 5 25
v 6 27
v 7 0
v 8 13
v 9 22
v 10 7
v 11 26
v 12 1
v 13 17
v 14 20
v 15 15
v 16 23
v 17 27
v 18 11
v 19 8
v 20 3
v 21 7
v 22 6
v 23 0
v 24 25
v 25 17
v 26 2
v 27 1
v 28 13
v 29 10
v 30 15
v 31 4
v 32 14
v 33 18
v 34 12
v 35 1
v 36 19
v 37 24
v 38 24
v 39 27
v 40 14
v 41 3
v 42 22
v 43 2
v 44 28
v 45 12
v 46 0
v 47 11
v 48 8
v 49 7
v 50 27
v 51 4
v 52 0
v 53 20
v 54 21
v 55 5
v 56 11
v 57 8
v 58 22
v 59 5
v 60 6
v 61 5
v 62 18
v 63 5
v 64 5
v 65 5
v 66 5
v 67 21
v 68 24
v 69 5
v 70 19
v 71 9
v 72 21
v 73 3
v 74 21
v 75 18
v 76 9
v 77 3
v 78 2
v 79 12
v 80 2
v 81 9
v 82 28
v 83 18
v 84 19
v 85 6
v 86 1
v 87 3
v 88 9
v 89 23
v 90 21
v 91 4
v 92 2
v 93 2
v 94 16
v 95 0
v 96 24
v 97 2
v 98 16
v 99 6
v 100 15
v 101 2
v 102 13
v 103 28
v 104 25
v 105 9
v 106 5
v 107 11
v 108 5
v 109 5
v 110 9
v 111 4
v 112 29
v 113 11
v 114 27
v 115 26
v 116 1
v 117 5
v 118 27
v 119 19
v 120 9
v 121 11
v 122 9
v 123 29
v 124 9
v 125 6
v 126 9
v 127 9
v 128 4
v 129 2
v 130 2
v 131 2
v 132 11
v 133 9
v 134 21
v 135 6
v 136 8
v 137 3
v 138 5
v 139 4
v 140 19
v 141 18
v 142 16
v 143 12
v 144 9
v 145 9
v 146 9
v 147 9
v 148 9
v 149 1
v 150 12
v 151 4
v 152 4
v 153 24
v 154 5
v 155 26
v 156 5
v 157 21
v 158 6
v 159 5
v 160 15
v 161 16
v 162 9
v 163 11
v 164 9
v 165 9
v 166 14
v 167 8
v 168 8
v 169 21
v 170 18
v 171 11
v 172 9
v 173 11
v 174 14
v 175 11
v 176 14
v 177 14
v 178 18
v 179 18
v 180 14
v 181 11
v 182 18
v 183 11
v 184 14
v 185 18
v 186 11
v 187 22
v 188 3
v 189 1
v 190 11
v 191 9
v 192 14
v 193 8
v 194 18
v 195 18
v 196 28
v 197 18
v 198 18
v 199 28
v 200 14
v 201 11
v 202 11
v 203 8
v 204 18
v 205 9
v 206 9
v 207 14
v 208 8
v 209 12
v 210 11
v 211 5
